12 12 3

minsum minsum minsum

572 363 807 181 687 402 566 540 229 9 100 38
407 248 21 469 175 739 899 442 929 66 25 47
320 834 948 789 531 243 106 311 368 83 35 43

1 1 1 0 0 0 0 0 0 0 0 0
0 0 0 1 1 1 0 0 0 0 0 0
0 0 0 0 0 0 1 1 1 0 0 0
1 0 0 0 0 0 0 0 0 -1 0 0
0 1 0 0 0 0 0 0 0 0 -1 0
0 0 1 0 0 0 0 0 0 0 0 -1
0 0 0 1 0 0 0 0 0 -1 0 0
0 0 0 0 1 0 0 0 0 0 -1 0
0 0 0 0 0 1 0 0 0 0 0 -1
0 0 0 0 0 0 1 0 0 -1 0 0
0 0 0 0 0 0 0 1 0 0 -1 0
0 0 0 0 0 0 0 0 1 0 0 -1

2 1
2 1
2 1
1 0
1 0
1 0
1 0
1 0
1 0
1 0
1 0
1 0

0 0 0 0 0 0 0 0 0 0 0 0
1 1 1 1 1 1 1 1 1 1 1 1
